(declare-fun bvlambda_4_ ()Bool         )
(declare-fun bvlambda_27_ ()Bool         )
(declare-fun a112 () (Array (_ BitVec 1) (_ BitVec 7)))
(assert
(let (($e32 (_ bv8 7)))
(let (($e536 (store a112  bvlambda_27_ $e32 )))
(let (($e537 (select $e536 true )))
(let (($e1198 (store a112 false      $e537)))
(
                  extract(select $e1198 bvlambda_4_)
                                                                                                                      ))                                                                                                                                                                                                                                                                                                                                                                                                                                                                                                                                                                                                                                                                                    ))                                                                                                                                                                                                                                                                                                                                                                                                                                                                                )                               )
